
Gurobi 9.0.2 (win64) logging started Sat Oct 10 17:13:47 2020

Changed value of parameter logfile to result\v6.2-20201010T1221\scenario_2030_eff070_cab4000.log
   Prev:   Default: 
Gurobi Optimizer version 9.0.2 build v9.0.2rc0 (win64)
Optimize a model with 1384150 rows, 884815 columns and 3912197 nonzeros
Model fingerprint: 0xbca2afac
Coefficient statistics:
  Matrix range     [1e-07, 4e+05]
  Objective range  [1e+00, 1e+00]
  Bounds range     [0e+00, 0e+00]
  RHS range        [2e-05, 3e+08]
Warning: Model contains large matrix coefficient range
         Consider reformulating model or setting NumericFocus parameter
         to avoid numerical issues.

Concurrent LP optimizer: primal simplex, dual simplex, and barrier
Showing barrier log only...

Presolve removed 1129315 rows and 656241 columns
Presolve time: 3.63s
Presolved: 254835 rows, 342440 columns, 891938 nonzeros

Ordering time: 0.13s

Barrier statistics:
 Dense cols : 9
 AA' NZ     : 8.194e+05
 Factor NZ  : 4.461e+06 (roughly 300 MBytes of memory)
 Factor Ops : 1.125e+08 (less than 1 second per iteration)
 Threads    : 30

                  Objective                Residual
Iter       Primal          Dual         Primal    Dual     Compl     Time
   0  -2.05098861e+16 -1.58515987e+15  6.15e+06 1.56e+04  2.46e+12     4s
   1  -3.14415343e+15 -1.58947118e+15  9.35e+05 4.73e+06  8.13e+11     5s
   2  -1.32316941e+15 -1.27422553e+15  3.91e+05 7.35e+05  2.11e+11     5s
   3  -4.37205590e+14 -1.03636795e+15  1.27e+05 1.78e+05  6.37e+10     5s
   4  -9.90078029e+13 -6.29069745e+14  2.73e+04 4.35e+04  1.49e+10     6s
   5  -3.60352467e+13 -4.22439533e+14  1.05e+04 2.12e+04  6.56e+09     6s
   6  -1.63970707e+13 -3.52370457e+14  5.05e+03 1.50e+04  4.00e+09     6s
   7  -8.30067429e+12 -1.90838142e+14  2.73e+03 3.72e+03  1.47e+09     6s
   8  -2.20142725e+12 -9.92935430e+13  9.11e+02 6.06e+02  4.01e+08     6s
   9   7.27818351e+11 -2.42473082e+13  9.55e+00 1.95e+01  3.96e+07     7s
  10   3.56286416e+11 -1.91568420e+12  2.01e-01 1.29e+00  3.41e+06     7s
  11   1.66584668e+11 -6.12766938e+11  6.77e-02 2.62e-01  1.15e+06     7s
  12   6.57147832e+10 -2.66628707e+11  2.24e-02 9.18e-03  4.84e+05     8s
  13   5.31768798e+10 -1.60815761e+11  1.74e-02 1.12e-08  3.11e+05     8s
  14   3.23005195e+10 -8.52405680e+10  9.68e-03 1.12e-08  1.71e+05     8s
  15   2.50590425e+10 -6.50818548e+10  7.13e-03 1.49e-08  1.31e+05     8s
  16   1.91171878e+10 -2.10699287e+10  5.08e-03 1.49e-08  5.83e+04     9s
  17   1.96856134e+10 -1.46340523e+10  4.93e-03 1.12e-08  4.98e+04     9s
  18   1.30256950e+10 -2.23864982e+09  2.21e-03 1.12e-08  2.21e+04     9s
  19   8.90280410e+09  3.37429125e+09  5.14e-04 9.31e-09  7.99e+03    10s
  20   8.55041346e+09  4.72261122e+09  3.97e-04 7.45e-09  5.53e+03    10s
  21   8.29648511e+09  4.92690854e+09  3.13e-04 5.59e-09  4.87e+03    10s
  22   8.24704577e+09  5.30633516e+09  2.96e-04 5.59e-09  4.25e+03    10s
  23   8.10278406e+09  5.76630860e+09  2.48e-04 5.59e-09  3.38e+03    11s
  24   7.89223198e+09  6.43992701e+09  1.80e-04 3.73e-09  2.10e+03    11s
  25   7.64619773e+09  6.57756307e+09  1.00e-04 2.79e-09  1.54e+03    11s
  26   7.54793816e+09  6.82277546e+09  6.89e-05 2.79e-09  1.05e+03    12s
  27   7.47432564e+09  7.01692236e+09  4.55e-05 2.79e-09  6.61e+02    12s
  28   7.41008070e+09  7.14896141e+09  2.60e-05 1.86e-09  3.77e+02    12s
  29   7.37407901e+09  7.20083715e+09  1.59e-05 1.86e-09  2.50e+02    13s
  30   7.36025318e+09  7.21853209e+09  1.21e-05 1.86e-09  2.05e+02    13s
  31   7.34369673e+09  7.24734039e+09  7.61e-06 1.86e-09  1.39e+02    13s
  32   7.33292944e+09  7.26501363e+09  4.75e-06 1.86e-09  9.81e+01    13s
  33   7.32416495e+09  7.28168115e+09  2.46e-06 1.86e-09  6.13e+01    14s
  34   7.31855066e+09  7.29792019e+09  9.77e-07 1.86e-09  2.98e+01    14s
  35   7.31609226e+09  7.30640969e+09  4.02e-07 1.86e-09  1.40e+01    14s
  36   7.31520704e+09  7.30983063e+09  2.28e-07 1.86e-09  7.76e+00    15s
  37   7.31459584e+09  7.31236790e+09  2.02e-07 1.86e-09  3.22e+00    15s
  38   7.31418772e+09  7.31307825e+09  3.57e-07 1.86e-09  1.60e+00    15s
  39   7.31404002e+09  7.31381885e+09  1.18e-07 2.79e-09  3.19e-01    15s
  40   7.31397701e+09  7.31392330e+09  1.93e-07 2.79e-09  7.75e-02    15s
  41   7.31396530e+09  7.31393756e+09  4.10e-08 1.86e-09  4.00e-02    16s
  42   7.31396193e+09  7.31395976e+09  1.43e-07 3.49e-09  3.13e-03    16s
  43   7.31396167e+09  7.31396167e+09  6.82e-07 1.85e-07  7.10e-06    16s
  44   7.31396167e+09  7.31396167e+09  2.60e-04 5.43e-06  7.10e-06    17s

Barrier solved model in 44 iterations and 16.66 seconds
Optimal objective 7.31396167e+09

Crossover log...

   75925 DPushes remaining with DInf 0.0000000e+00                17s
    3479 DPushes remaining with DInf 0.0000000e+00                20s
       0 DPushes remaining with DInf 0.0000000e+00                21s
Warning: Markowitz tolerance tightened to 0.5

   94463 PPushes remaining with PInf 3.8914715e-03                21s
   45052 PPushes remaining with PInf 5.7547890e-02                28s
   29059 PPushes remaining with PInf 2.6162662e-02                37s
       0 PPushes remaining with PInf 0.0000000e+00                42s

  Push phase complete: Pinf 0.0000000e+00, Dinf 1.1970706e+01     42s

Iteration    Objective       Primal Inf.    Dual Inf.      Time
  121865    7.3139617e+09   0.000000e+00   1.197071e+01     43s
Extra one simplex iteration after uncrush
  121878    7.3139617e+09   0.000000e+00   0.000000e+00     45s

Solved with barrier
Solved in 121878 iterations and 45.25 seconds
Optimal objective  7.313961672e+09
Warning: unscaled primal violation = 0.000885445 and residual = 0.000885445
